29
12
2 14 4 11 21 17 0 20 7 26 25 1 16 15 13 3 10 23 6 12 8 18
18 15 6 10 12 1 23 0 17 9
0 9 22 16 8 28 6 11 25 4 14 24 23 27 3 15 20 10 17 2 1 26 13 19 21 5
2 9 5 27 25 6 11 0 28 10 21 24 20 12 15 22 14 1 8
24 22 18 7 4 25 8 12 11 10 23 0 21 28 19 16 26 20 2 27 5 3 13 17 15 14 9 6 1
20 6 15 16 27 0 25 23 19
9 19 13 22 28 11 20 27
28 13 22 4 2 12 17
15 20 17 7 24 6 5 1 12 25 4 19 16 13 8 0 23 26 2 3
24 7 23 13 15 17 0 11 1 20 14 25 4 18 28 22 8 19 2 12 27 6 5 21
16 8 20 13 6 23 12 7 10 25 24 4 26 1 21 3 9 22 0 17
9 10 16 27 14 8 21 0 22 15 25 17 1 5 26 6 28 13 3 7 11 4
